67
1 0 38
2 0 54
2 1 26
3 0 53
3 1 26
3 2 47
4 0 9
4 1 62
4 2 51
4 3 58
5 0 10
5 1 5
5 2 47
5 3 4
5 4 58
6 0 35
6 1 38
6 2 54
6 3 30
6 4 56
6 5 26
7 0 24
7 1 32
7 2 57
7 3 39
7 4 48
7 5 68
7 6 54
8 0 53
8 1 25
8 2 10
8 3 36
8 4 43
8 5 44
8 6 12
8 7 37
9 0 5
9 1 39
9 2 38
9 3 6
9 4 13
9 5 35
9 6 32
9 7 57
9 8 63
10 0 35
10 1 47
10 2 42
10 3 68
10 4 34
10 5 6
10 6 22
10 7 61
10 8 5
10 9 56
11 0 3
11 1 53
11 2 45
11 3 6
11 4 63
11 5 54
11 6 68
11 7 15
11 8 25
11 9 67
11 10 17
12 0 14
12 1 37
12 2 48
12 3 35
12 4 3
12 5 26
12 6 40
12 7 7
12 8 31
12 9 33
12 10 5
12 11 14
13 0 67
13 1 35
13 2 12
13 3 44
13 4 29
13 5 16
13 6 19
13 7 56
13 8 2
13 9 5
13 10 48
13 11 11
13 12 10
14 0 62
14 1 34
14 2 36
14 3 2
14 4 40
14 5 58
14 6 40
14 7 68
14 8 6
14 9 63
14 10 63
14 11 28
14 12 47
14 13 68
15 0 33
15 1 59
15 2 20
15 3 16
15 4 41
15 5 44
15 6 60
15 7 41
15 8 49
15 9 30
15 10 53
15 11 36
15 12 36
15 13 56
15 14 68
16 0 31
16 1 14
16 2 59
16 3 12
16 4 28
16 5 56
16 6 6
16 7 39
16 8 13
16 9 22
16 10 30
16 11 21
16 12 46
16 13 28
16 14 10
16 15 52
17 0 46
17 1 32
17 2 43
17 3 54
17 4 67
17 5 10
17 6 39
17 7 18
17 8 48
17 9 23
17 10 16
17 11 63
17 12 12
17 13 50
17 14 17
17 15 54
17 16 41
18 0 10
18 1 54
18 2 25
18 3 50
18 4 8
18 5 38
18 6 37
18 7 67
18 8 51
18 9 9
18 10 1
18 11 47
18 12 50
18 13 51
18 14 16
18 15 40
18 16 50
18 17 19
19 0 50
19 1 48
19 2 9
19 3 8
19 4 2
19 5 13
19 6 13
19 7 22
19 8 23
19 9 49
19 10 40
19 11 11
19 12 12
19 13 40
19 14 46
19 15 53
19 16 18
19 17 46
19 18 65
20 0 51
20 1 33
20 2 50
20 3 50
20 4 60
20 5 42
20 6 55
20 7 41
20 8 16
20 9 29
20 10 52
20 11 48
20 12 24
20 13 64
20 14 4
20 15 38
20 16 26
20 17 17
20 18 28
20 19 68
21 0 7
21 1 15
21 2 68
21 3 44
21 4 37
21 5 39
21 6 11
21 7 45
21 8 28
21 9 50
21 10 63
21 11 4
21 12 33
21 13 68
21 14 54
21 15 35
21 16 2
21 17 8
21 18 33
21 19 48
21 20 28
22 0 21
22 1 51
22 2 30
22 3 56
22 4 16
22 5 24
22 6 5
22 7 49
22 8 41
22 9 56
22 10 22
22 11 17
22 12 17
22 13 42
22 14 61
22 15 65
22 16 67
22 17 48
22 18 9
22 19 26
22 20 37
22 21 1
23 0 16
23 1 34
23 2 22
23 3 54
23 4 49
23 5 62
23 6 60
23 7 5
23 8 37
23 9 29
23 10 28
23 11 63
23 12 41
23 13 32
23 14 24
23 15 67
23 16 64
23 17 7
23 18 19
23 19 27
23 20 35
23 21 5
23 22 34
24 0 23
24 1 40
24 2 62
24 3 62
24 4 52
24 5 7
24 6 63
24 7 24
24 8 53
24 9 24
24 10 57
24 11 7
24 12 8
24 13 14
24 14 14
24 15 44
24 16 24
24 17 22
24 18 5
24 19 46
24 20 2
24 21 22
24 22 20
24 23 57
25 0 53
25 1 54
25 2 36
25 3 61
25 4 64
25 5 46
25 6 68
25 7 22
25 8 35
25 9 12
25 10 24
25 11 18
25 12 22
25 13 35
25 14 13
25 15 39
25 16 48
25 17 11
25 18 20
25 19 27
25 20 13
25 21 66
25 22 28
25 23 25
25 24 58
26 0 64
26 1 17
26 2 30
26 3 32
26 4 5
26 5 66
26 6 64
26 7 34
26 8 50
26 9 31
26 10 29
26 11 44
26 12 31
26 13 64
26 14 19
26 15 33
26 16 12
26 17 66
26 18 17
26 19 22
26 20 11
26 21 46
26 22 20
26 23 25
26 24 15
26 25 55
27 0 38
27 1 67
27 2 7
27 3 14
27 4 11
27 5 21
27 6 56
27 7 20
27 8 19
27 9 51
27 10 47
27 11 12
27 12 38
27 13 10
27 14 3
27 15 9
27 16 4
27 17 24
27 18 5
27 19 47
27 20 2
27 21 66
27 22 9
27 23 44
27 24 19
27 25 66
27 26 38
28 0 41
28 1 12
28 2 56
28 3 57
28 4 58
28 5 6
28 6 24
28 7 42
28 8 57
28 9 14
28 10 2
28 11 56
28 12 34
28 13 63
28 14 63
28 15 8
28 16 3
28 17 8
28 18 29
28 19 18
28 20 6
28 21 8
28 22 4
28 23 8
28 24 22
28 25 14
28 26 31
28 27 33
29 0 62
29 1 62
29 2 15
29 3 59
29 4 26
29 5 25
29 6 3
29 7 66
29 8 58
29 9 42
29 10 34
29 11 30
29 12 40
29 13 42
29 14 21
29 15 14
29 16 30
29 17 15
29 18 65
29 19 30
29 20 38
29 21 31
29 22 11
29 23 66
29 24 36
29 25 68
29 26 18
29 27 36
29 28 45
30 0 28
30 1 45
30 2 34
30 3 16
30 4 48
30 5 10
30 6 56
30 7 64
30 8 27
30 9 19
30 10 5
30 11 41
30 12 53
30 13 24
30 14 16
30 15 10
30 16 27
30 17 58
30 18 31
30 19 26
30 20 64
30 21 9
30 22 52
30 23 68
30 24 53
30 25 45
30 26 51
30 27 45
30 28 2
30 29 26
31 0 32
31 1 40
31 2 1
31 3 62
31 4 10
31 5 37
31 6 13
31 7 26
31 8 40
31 9 14
31 10 8
31 11 33
31 12 6
31 13 44
31 14 6
31 15 64
31 16 28
31 17 67
31 18 21
31 19 14
31 20 18
31 21 51
31 22 53
31 23 32
31 24 6
31 25 17
31 26 36
31 27 9
31 28 7
31 29 16
31 30 30
32 0 15
32 1 17
32 2 39
32 3 10
32 4 35
32 5 3
32 6 39
32 7 46
32 8 29
32 9 49
32 10 30
32 11 37
32 12 52
32 13 19
32 14 47
32 15 63
32 16 60
32 17 62
32 18 58
32 19 54
32 20 6
32 21 26
32 22 30
32 23 16
32 24 10
32 25 13
32 26 22
32 27 20
32 28 9
32 29 22
32 30 54
32 31 13
33 0 18
33 1 14
33 2 63
33 3 39
33 4 15
33 5 21
33 6 19
33 7 19
33 8 14
33 9 3
33 10 47
33 11 57
33 12 48
33 13 13
33 14 4
33 15 24
33 16 47
33 17 13
33 18 3
33 19 61
33 20 59
33 21 38
33 22 21
33 23 31
33 24 59
33 25 45
33 26 46
33 27 52
33 28 63
33 29 27
33 30 16
33 31 63
33 32 13
34 0 45
34 1 25
34 2 38
34 3 42
34 4 37
34 5 17
34 6 50
34 7 23
34 8 35
34 9 15
34 10 10
34 11 57
34 12 36
34 13 1
34 14 4
34 15 19
34 16 8
34 17 67
34 18 9
34 19 61
34 20 29
34 21 37
34 22 16
34 23 20
34 24 43
34 25 46
34 26 38
34 27 60
34 28 66
34 29 5
34 30 60
34 31 14
34 32 52
34 33 19
35 0 57
35 1 32
35 2 43
35 3 7
35 4 23
35 5 42
35 6 16
35 7 56
35 8 37
35 9 1
35 10 4
35 11 15
35 12 19
35 13 19
35 14 60
35 15 31
35 16 29
35 17 2
35 18 28
35 19 4
35 20 60
35 21 30
35 22 56
35 23 65
35 24 13
35 25 64
35 26 13
35 27 66
35 28 53
35 29 34
35 30 28
35 31 18
35 32 35
35 33 17
35 34 53
36 0 63
36 1 57
36 2 28
36 3 18
36 4 23
36 5 65
36 6 56
36 7 36
36 8 11
36 9 49
36 10 34
36 11 58
36 12 9
36 13 1
36 14 62
36 15 45
36 16 63
36 17 5
36 18 9
36 19 26
36 20 59
36 21 63
36 22 67
36 23 43
36 24 4
36 25 49
36 26 42
36 27 15
36 28 27
36 29 62
36 30 28
36 31 21
36 32 43
36 33 26
36 34 2
36 35 38
37 0 66
37 1 2
37 2 3
37 3 39
37 4 33
37 5 25
37 6 23
37 7 37
37 8 63
37 9 21
37 10 30
37 11 62
37 12 53
37 13 58
37 14 21
37 15 54
37 16 57
37 17 51
37 18 14
37 19 14
37 20 25
37 21 9
37 22 60
37 23 24
37 24 53
37 25 38
37 26 61
37 27 40
37 28 27
37 29 26
37 30 14
37 31 60
37 32 52
37 33 1
37 34 63
37 35 44
37 36 31
38 0 36
38 1 9
38 2 36
38 3 27
38 4 59
38 5 11
38 6 30
38 7 12
38 8 34
38 9 35
38 10 57
38 11 58
38 12 16
38 13 41
38 14 6
38 15 19
38 16 42
38 17 53
38 18 29
38 19 56
38 20 68
38 21 34
38 22 1
38 23 4
38 24 30
38 25 26
38 26 48
38 27 64
38 28 52
38 29 50
38 30 57
38 31 26
38 32 43
38 33 44
38 34 17
38 35 14
38 36 19
38 37 49
39 0 64
39 1 5
39 2 28
39 3 19
39 4 28
39 5 52
39 6 31
39 7 19
39 8 39
39 9 57
39 10 62
39 11 28
39 12 35
39 13 49
39 14 55
39 15 17
39 16 55
39 17 35
39 18 14
39 19 18
39 20 7
39 21 25
39 22 38
39 23 7
39 24 60
39 25 65
39 26 11
39 27 27
39 28 2
39 29 31
39 30 2
39 31 12
39 32 28
39 33 14
39 34 68
39 35 36
39 36 34
39 37 53
39 38 58
40 0 64
40 1 3
40 2 18
40 3 53
40 4 57
40 5 62
40 6 57
40 7 28
40 8 59
40 9 68
40 10 11
40 11 26
40 12 7
40 13 47
40 14 63
40 15 1
40 16 27
40 17 1
40 18 49
40 19 42
40 20 9
40 21 64
40 22 8
40 23 32
40 24 34
40 25 7
40 26 31
40 27 47
40 28 65
40 29 4
40 30 56
40 31 16
40 32 18
40 33 55
40 34 17
40 35 60
40 36 38
40 37 11
40 38 11
40 39 2
41 0 10
41 1 21
41 2 18
41 3 37
41 4 12
41 5 34
41 6 64
41 7 4
41 8 12
41 9 61
41 10 30
41 11 22
41 12 10
41 13 48
41 14 33
41 15 46
41 16 61
41 17 30
41 18 21
41 19 48
41 20 34
41 21 63
41 22 64
41 23 40
41 24 21
41 25 6
41 26 33
41 27 49
41 28 57
41 29 61
41 30 40
41 31 39
41 32 24
41 33 1
41 34 25
41 35 6
41 36 9
41 37 62
41 38 37
41 39 52
41 40 39
42 0 33
42 1 34
42 2 30
42 3 55
42 4 40
42 5 33
42 6 26
42 7 20
42 8 57
42 9 15
42 10 4
42 11 46
42 12 49
42 13 50
42 14 4
42 15 61
42 16 57
42 17 65
42 18 37
42 19 12
42 20 52
42 21 32
42 22 39
42 23 45
42 24 64
42 25 49
42 26 6
42 27 32
42 28 34
42 29 11
42 30 19
42 31 51
42 32 67
42 33 26
42 34 54
42 35 58
42 36 24
42 37 13
42 38 59
42 39 48
42 40 48
42 41 6
43 0 29
43 1 3
43 2 51
43 3 53
43 4 53
43 5 3
43 6 49
43 7 28
43 8 16
43 9 47
43 10 22
43 11 63
43 12 2
43 13 34
43 14 21
43 15 44
43 16 19
43 17 61
43 18 3
43 19 56
43 20 50
43 21 14
43 22 50
43 23 66
43 24 54
43 25 59
43 26 6
43 27 11
43 28 59
43 29 41
43 30 21
43 31 39
43 32 4
43 33 37
43 34 65
43 35 65
43 36 58
43 37 28
43 38 65
43 39 52
43 40 17
43 41 35
43 42 68
44 0 21
44 1 28
44 2 2
44 3 43
44 4 2
44 5 63
44 6 50
44 7 22
44 8 44
44 9 11
44 10 18
44 11 6
44 12 1
44 13 26
44 14 43
44 15 15
44 16 58
44 17 34
44 18 29
44 19 45
44 20 37
44 21 45
44 22 67
44 23 49
44 24 62
44 25 15
44 26 40
44 27 21
44 28 32
44 29 32
44 30 14
44 31 60
44 32 38
44 33 31
44 34 35
44 35 45
44 36 42
44 37 47
44 38 24
44 39 8
44 40 13
44 41 26
44 42 33
44 43 26
45 0 38
45 1 61
45 2 40
45 3 21
45 4 3
45 5 10
45 6 58
45 7 31
45 8 35
45 9 25
45 10 27
45 11 61
45 12 35
45 13 38
45 14 44
45 15 61
45 16 66
45 17 10
45 18 11
45 19 50
45 20 42
45 21 10
45 22 49
45 23 20
45 24 33
45 25 40
45 26 37
45 27 4
45 28 62
45 29 63
45 30 68
45 31 54
45 32 20
45 33 66
45 34 14
45 35 3
45 36 17
45 37 24
45 38 23
45 39 68
45 40 68
45 41 39
45 42 31
45 43 44
45 44 9
46 0 14
46 1 29
46 2 11
46 3 4
46 4 56
46 5 3
46 6 61
46 7 62
46 8 42
46 9 22
46 10 28
46 11 30
46 12 62
46 13 64
46 14 35
46 15 35
46 16 63
46 17 66
46 18 17
46 19 66
46 20 34
46 21 28
46 22 5
46 23 7
46 24 54
46 25 28
46 26 1
46 27 64
46 28 60
46 29 59
46 30 21
46 31 11
46 32 5
46 33 1
46 34 51
46 35 23
46 36 12
46 37 9
46 38 6
46 39 43
46 40 68
46 41 23
46 42 59
46 43 30
46 44 3
46 45 31
47 0 40
47 1 27
47 2 1
47 3 68
47 4 23
47 5 59
47 6 33
47 7 66
47 8 67
47 9 50
47 10 5
47 11 10
47 12 47
47 13 7
47 14 1
47 15 55
47 16 27
47 17 25
47 18 37
47 19 8
47 20 30
47 21 39
47 22 1
47 23 52
47 24 31
47 25 18
47 26 27
47 27 35
47 28 24
47 29 63
47 30 34
47 31 43
47 32 63
47 33 2
47 34 19
47 35 34
47 36 16
47 37 7
47 38 65
47 39 61
47 40 11
47 41 19
47 42 52
47 43 39
47 44 32
47 45 37
47 46 45
48 0 21
48 1 32
48 2 20
48 3 23
48 4 33
48 5 1
48 6 9
48 7 5
48 8 53
48 9 24
48 10 59
48 11 51
48 12 50
48 13 22
48 14 24
48 15 46
48 16 6
48 17 46
48 18 29
48 19 8
48 20 11
48 21 41
48 22 9
48 23 60
48 24 60
48 25 47
48 26 11
48 27 12
48 28 1
48 29 68
48 30 61
48 31 33
48 32 45
48 33 68
48 34 48
48 35 33
48 36 19
48 37 14
48 38 25
48 39 4
48 40 56
48 41 22
48 42 42
48 43 54
48 44 28
48 45 58
48 46 32
48 47 62
49 0 60
49 1 26
49 2 29
49 3 10
49 4 18
49 5 30
49 6 6
49 7 8
49 8 49
49 9 20
49 10 41
49 11 25
49 12 41
49 13 5
49 14 62
49 15 64
49 16 56
49 17 20
49 18 66
49 19 15
49 20 39
49 21 40
49 22 3
49 23 27
49 24 59
49 25 1
49 26 8
49 27 59
49 28 62
49 29 43
49 30 54
49 31 20
49 32 68
49 33 60
49 34 17
49 35 10
49 36 14
49 37 7
49 38 14
49 39 15
49 40 42
49 41 15
49 42 64
49 43 68
49 44 38
49 45 31
49 46 51
49 47 15
49 48 59
50 0 32
50 1 29
50 2 56
50 3 42
50 4 30
50 5 51
50 6 20
50 7 35
50 8 1
50 9 56
50 10 63
50 11 67
50 12 53
50 13 2
50 14 39
50 15 45
50 16 17
50 17 53
50 18 64
50 19 52
50 20 6
50 21 18
50 22 29
50 23 48
50 24 12
50 25 7
50 26 19
50 27 47
50 28 58
50 29 31
50 30 9
50 31 21
50 32 18
50 33 60
50 34 42
50 35 26
50 36 51
50 37 18
50 38 34
50 39 35
50 40 55
50 41 32
50 42 26
50 43 7
50 44 55
50 45 29
50 46 8
50 47 54
50 48 42
50 49 3
51 0 19
51 1 43
51 2 1
51 3 63
51 4 38
51 5 27
51 6 11
51 7 68
51 8 55
51 9 54
51 10 56
51 11 24
51 12 4
51 13 39
51 14 66
51 15 64
51 16 54
51 17 60
51 18 1
51 19 2
51 20 22
51 21 4
51 22 47
51 23 32
51 24 3
51 25 63
51 26 35
51 27 15
51 28 54
51 29 29
51 30 14
51 31 39
51 32 55
51 33 53
51 34 36
51 35 14
51 36 59
51 37 55
51 38 31
51 39 61
51 40 37
51 41 67
51 42 42
51 43 30
51 44 55
51 45 26
51 46 28
51 47 29
51 48 27
51 49 41
51 50 14
52 0 32
52 1 35
52 2 17
52 3 45
52 4 21
52 5 66
52 6 47
52 7 60
52 8 1
52 9 57
52 10 5
52 11 8
52 12 59
52 13 62
52 14 56
52 15 11
52 16 58
52 17 2
52 18 9
52 19 34
52 20 57
52 21 46
52 22 14
52 23 12
52 24 55
52 25 39
52 26 11
52 27 51
52 28 56
52 29 10
52 30 62
52 31 46
52 32 33
52 33 7
52 34 34
52 35 19
52 36 65
52 37 32
52 38 41
52 39 66
52 40 15
52 41 56
52 42 11
52 43 21
52 44 50
52 45 45
52 46 31
52 47 19
52 48 50
52 49 66
52 50 6
52 51 52
53 0 5
53 1 38
53 2 38
53 3 64
53 4 68
53 5 52
53 6 29
53 7 28
53 8 44
53 9 29
53 10 31
53 11 2
53 12 53
53 13 26
53 14 64
53 15 47
53 16 19
53 17 61
53 18 19
53 19 59
53 20 28
53 21 35
53 22 29
53 23 31
53 24 49
53 25 47
53 26 61
53 27 67
53 28 19
53 29 56
53 30 22
53 31 47
53 32 30
53 33 40
53 34 50
53 35 57
53 36 34
53 37 67
53 38 17
53 39 6
53 40 57
53 41 9
53 42 40
53 43 5
53 44 24
53 45 56
53 46 56
53 47 26
53 48 30
53 49 45
53 50 6
53 51 39
53 52 54
54 0 57
54 1 23
54 2 62
54 3 37
54 4 10
54 5 16
54 6 1
54 7 58
54 8 55
54 9 53
54 10 43
54 11 54
54 12 7
54 13 29
54 14 10
54 15 6
54 16 62
54 17 40
54 18 33
54 19 15
54 20 39
54 21 51
54 22 47
54 23 56
54 24 61
54 25 61
54 26 16
54 27 23
54 28 4
54 29 44
54 30 59
54 31 39
54 32 48
54 33 33
54 34 37
54 35 33
54 36 35
54 37 58
54 38 42
54 39 14
54 40 11
54 41 9
54 42 46
54 43 25
54 44 24
54 45 50
54 46 29
54 47 15
54 48 14
54 49 50
54 50 26
54 51 60
54 52 30
54 53 60
55 0 51
55 1 59
55 2 3
55 3 58
55 4 21
55 5 63
55 6 14
55 7 10
55 8 19
55 9 24
55 10 65
55 11 66
55 12 48
55 13 52
55 14 42
55 15 59
55 16 35
55 17 55
55 18 2
55 19 13
55 20 42
55 21 17
55 22 21
55 23 39
55 24 25
55 25 35
55 26 26
55 27 50
55 28 30
55 29 36
55 30 45
55 31 58
55 32 4
55 33 45
55 34 39
55 35 49
55 36 58
55 37 48
55 38 66
55 39 55
55 40 65
55 41 38
55 42 21
55 43 57
55 44 7
55 45 66
55 46 32
55 47 33
55 48 54
55 49 25
55 50 24
55 51 22
55 52 57
55 53 49
55 54 45
56 0 2
56 1 54
56 2 4
56 3 55
56 4 52
56 5 9
56 6 68
56 7 21
56 8 56
56 9 12
56 10 15
56 11 39
56 12 20
56 13 7
56 14 8
56 15 54
56 16 16
56 17 38
56 18 58
56 19 14
56 20 35
56 21 48
56 22 34
56 23 14
56 24 30
56 25 51
56 26 6
56 27 55
56 28 55
56 29 14
56 30 46
56 31 45
56 32 60
56 33 32
56 34 63
56 35 33
56 36 37
56 37 45
56 38 39
56 39 36
56 40 48
56 41 28
56 42 59
56 43 54
56 44 33
56 45 20
56 46 62
56 47 49
56 48 61
56 49 15
56 50 36
56 51 50
56 52 8
56 53 48
56 54 62
56 55 64
57 0 27
57 1 62
57 2 15
57 3 48
57 4 21
57 5 68
57 6 6
57 7 5
57 8 60
57 9 6
57 10 34
57 11 4
57 12 51
57 13 60
57 14 30
57 15 30
57 16 35
57 17 46
57 18 39
57 19 39
57 20 52
57 21 33
57 22 39
57 23 15
57 24 33
57 25 27
57 26 61
57 27 37
57 28 66
57 29 21
57 30 22
57 31 51
57 32 24
57 33 56
57 34 25
57 35 61
57 36 15
57 37 55
57 38 23
57 39 3
57 40 15
57 41 8
57 42 59
57 43 46
57 44 28
57 45 10
57 46 4
57 47 68
57 48 56
57 49 28
57 50 31
57 51 48
57 52 39
57 53 35
57 54 51
57 55 5
57 56 21
58 0 55
58 1 49
58 2 52
58 3 64
58 4 52
58 5 62
58 6 36
58 7 2
58 8 1
58 9 64
58 10 44
58 11 9
58 12 31
58 13 45
58 14 1
58 15 65
58 16 50
58 17 22
58 18 60
58 19 22
58 20 18
58 21 40
58 22 68
58 23 8
58 24 33
58 25 6
58 26 30
58 27 50
58 28 61
58 29 42
58 30 26
58 31 50
58 32 22
58 33 44
58 34 59
58 35 59
58 36 13
58 37 13
58 38 59
58 39 21
58 40 64
58 41 38
58 42 40
58 43 11
58 44 59
58 45 36
58 46 44
58 47 25
58 48 50
58 49 46
58 50 41
58 51 32
58 52 29
58 53 21
58 54 60
58 55 18
58 56 8
58 57 64
59 0 19
59 1 54
59 2 48
59 3 22
59 4 26
59 5 40
59 6 59
59 7 35
59 8 42
59 9 64
59 10 35
59 11 35
59 12 4
59 13 43
59 14 55
59 15 30
59 16 40
59 17 31
59 18 66
59 19 7
59 20 51
59 21 28
59 22 28
59 23 48
59 24 62
59 25 28
59 26 2
59 27 68
59 28 48
59 29 59
59 30 51
59 31 58
59 32 64
59 33 37
59 34 34
59 35 25
59 36 23
59 37 36
59 38 24
59 39 59
59 40 66
59 41 12
59 42 25
59 43 31
59 44 60
59 45 24
59 46 36
59 47 56
59 48 48
59 49 33
59 50 48
59 51 40
59 52 7
59 53 5
59 54 35
59 55 38
59 56 7
59 57 45
59 58 45
60 0 23
60 1 67
60 2 46
60 3 66
60 4 21
60 5 18
60 6 22
60 7 16
60 8 68
60 9 39
60 10 34
60 11 37
60 12 23
60 13 65
60 14 51
60 15 1
60 16 13
60 17 42
60 18 17
60 19 42
60 20 23
60 21 3
60 22 39
60 23 52
60 24 45
60 25 30
60 26 56
60 27 5
60 28 10
60 29 29
60 30 12
60 31 66
60 32 25
60 33 47
60 34 4
60 35 32
60 36 66
60 37 6
60 38 31
60 39 10
60 40 47
60 41 16
60 42 5
60 43 2
60 44 66
60 45 41
60 46 29
60 47 15
60 48 63
60 49 59
60 50 56
60 51 6
60 52 34
60 53 46
60 54 12
60 55 45
60 56 60
60 57 23
60 58 68
60 59 27
61 0 39
61 1 11
61 2 44
61 3 39
61 4 56
61 5 6
61 6 19
61 7 57
61 8 68
61 9 15
61 10 46
61 11 46
61 12 30
61 13 18
61 14 66
61 15 4
61 16 50
61 17 58
61 18 67
61 19 13
61 20 20
61 21 35
61 22 52
61 23 28
61 24 68
61 25 37
61 26 28
61 27 34
61 28 6
61 29 7
61 30 15
61 31 64
61 32 35
61 33 27
61 34 2
61 35 67
61 36 39
61 37 44
61 38 3
61 39 40
61 40 34
61 41 17
61 42 38
61 43 27
61 44 19
61 45 21
61 46 20
61 47 31
61 48 61
61 49 30
61 50 42
61 51 30
61 52 53
61 53 43
61 54 26
61 55 22
61 56 13
61 57 28
61 58 24
61 59 68
61 60 56
62 0 46
62 1 52
62 2 11
62 3 43
62 4 66
62 5 57
62 6 33
62 7 4
62 8 66
62 9 57
62 10 66
62 11 64
62 12 36
62 13 56
62 14 58
62 15 41
62 16 42
62 17 9
62 18 40
62 19 26
62 20 56
62 21 21
62 22 51
62 23 6
62 24 22
62 25 61
62 26 56
62 27 33
62 28 48
62 29 36
62 30 20
62 31 47
62 32 40
62 33 4
62 34 34
62 35 68
62 36 30
62 37 44
62 38 3
62 39 44
62 40 47
62 41 20
62 42 63
62 43 34
62 44 3
62 45 58
62 46 36
62 47 42
62 48 64
62 49 54
62 50 14
62 51 16
62 52 4
62 53 19
62 54 3
62 55 41
62 56 49
62 57 1
62 58 3
62 59 49
62 60 29
62 61 18
63 0 65
63 1 58
63 2 55
63 3 64
63 4 18
63 5 33
63 6 61
63 7 29
63 8 18
63 9 4
63 10 27
63 11 47
63 12 67
63 13 36
63 14 24
63 15 3
63 16 51
63 17 49
63 18 30
63 19 23
63 20 26
63 21 68
63 22 53
63 23 25
63 24 19
63 25 52
63 26 56
63 27 11
63 28 9
63 29 41
63 30 10
63 31 8
63 32 51
63 33 22
63 34 45
63 35 17
63 36 36
63 37 11
63 38 62
63 39 66
63 40 14
63 41 54
63 42 33
63 43 19
63 44 12
63 45 64
63 46 30
63 47 16
63 48 36
63 49 63
63 50 42
63 51 60
63 52 27
63 53 10
63 54 67
63 55 30
63 56 27
63 57 30
63 58 30
63 59 1
63 60 14
63 61 7
63 62 53
64 0 20
64 1 49
64 2 31
64 3 53
64 4 2
64 5 2
64 6 50
64 7 31
64 8 22
64 9 26
64 10 32
64 11 8
64 12 51
64 13 63
64 14 43
64 15 45
64 16 4
64 17 39
64 18 20
64 19 12
64 20 6
64 21 47
64 22 30
64 23 6
64 24 55
64 25 12
64 26 29
64 27 5
64 28 59
64 29 16
64 30 59
64 31 40
64 32 68
64 33 62
64 34 23
64 35 63
64 36 9
64 37 5
64 38 61
64 39 54
64 40 12
64 41 42
64 42 23
64 43 9
64 44 40
64 45 66
64 46 58
64 47 44
64 48 29
64 49 6
64 50 19
64 51 65
64 52 36
64 53 46
64 54 28
64 55 46
64 56 42
64 57 13
64 58 49
64 59 56
64 60 1
64 61 64
64 62 41
64 63 4
65 0 63
65 1 30
65 2 11
65 3 67
65 4 33
65 5 32
65 6 56
65 7 25
65 8 16
65 9 63
65 10 41
65 11 61
65 12 34
65 13 16
65 14 42
65 15 14
65 16 62
65 17 52
65 18 11
65 19 57
65 20 7
65 21 52
65 22 45
65 23 36
65 24 19
65 25 46
65 26 4
65 27 22
65 28 12
65 29 49
65 30 35
65 31 54
65 32 41
65 33 19
65 34 44
65 35 57
65 36 36
65 37 28
65 38 32
65 39 51
65 40 48
65 41 34
65 42 57
65 43 18
65 44 57
65 45 54
65 46 10
65 47 16
65 48 7
65 49 42
65 50 32
65 51 44
65 52 29
65 53 13
65 54 26
65 55 33
65 56 58
65 57 31
65 58 17
65 59 42
65 60 64
65 61 35
65 62 48
65 63 29
65 64 55
66 0 15
66 1 34
66 2 15
66 3 46
66 4 28
66 5 4
66 6 34
66 7 41
66 8 35
66 9 28
66 10 32
66 11 67
66 12 50
66 13 19
66 14 40
66 15 4
66 16 63
66 17 27
66 18 5
66 19 19
66 20 62
66 21 47
66 22 23
66 23 32
66 24 57
66 25 41
66 26 6
66 27 5
66 28 52
66 29 37
66 30 37
66 31 1
66 32 54
66 33 48
66 34 50
66 35 44
66 36 10
66 37 31
66 38 9
66 39 16
66 40 10
66 41 63
66 42 68
66 43 51
66 44 5
66 45 54
66 46 4
66 47 50
66 48 13
66 49 9
66 50 37
66 51 65
66 52 41
66 53 4
66 54 50
66 55 47
66 56 37
66 57 21
66 58 24
66 59 3
66 60 21
66 61 8
66 62 39
66 63 49
66 64 9
66 65 4
